# Simplified kikuchi input file

units		metal
boundary	p p p

atom_style	atomic
lattice		bcc 2.855312 origin 0.25 0.25 0.25 orient x 1 0 0 orient y 0 1 0 orient z 0 0 1
region		box block 0 10 0 10 0 10 
create_box	1 box

create_atoms	1 box

pair_style none
mass * 1
atom_modify    sort 0 0.0

compute        SAED all saed 0.0251 Cu Kmax 1.7 Zone 0 0 0 c 2 2 2 echo
#fix           1 all ave/time 1 1 1 c_SAED file coleman_Fe1.txt mode vector
fix            1 all saed/xyz 1 1 1 c_SAED file test_Fe threshold 0.01

run       0



